rup/magic_series_4.rup
163:26 29 31
164:
165:
166:
167:163 66 164 165 166
168:167
169:34
170:163 66 169 165 166
171:170
172:163 66 169 164 166
173:172
174:163 66 169 164 165
175:174
176:34 167
177:73
178:
179:
180:
181:177 96 178 179 180
182:73 26 32 33 36 39 96
183:33 36 73 26 32 28
184:181
185:183 162 184 7
186:33 36 73 26 32 46 56 70 68 28 97 100 102 111 185
187:183 162 184 5
188:26 32 33 36 46 56 70 68 28 73 97 100 102 118 187
189:26 32 33 36 46 56 70 68 28 73 97 100 102 127 131 133
190:
191:26 32 33 36 46 56 70 68 28 73 97 131 133 100 102 127 135 143 149 147 186
192:135 143 26 32 33 36 46 56 186 147 149 70 68 28 73 97 131 133 100 102 127 151 157 155 188
193:189 159 190 191 192
194:135 143 151 26 32 33 36 46 56 186 147 149 188 155 157 70 68 28 73 97 131 133 100 102 127 88 159
195:187
196:
197:
198:
199:195 160 196 197 198
200:199
201:135 143 151 26 29 33 36 46 56 186 147 149 188 155 157 68 70
202:
203:
204:64
205:201 66 202 203 204
206:205
207:135 143 151 26 32 33 36 39 46 56 186 147 149 188 155 157 64 70 68 28 199 159 73 205 88 97 131 133 159 100 102 127 41 43 54 52 58 75 77 79 91 93 95
208:201 161 207 195
209:135 143 151 26 32 33 36 46 52 54 205
210:207
211:210 96 177 179 180
212:211
213:210 96 177 178 180
214:213
215:201 161 210 195
216:135 143 151 26 32 33 36 46 56 186 147 149 188 155 157 64 70 68 28 199 159 73 205 54 52 77 41 43 75 181 211 80
217:135 143 151 26 32 33 36 46 56 186 147 149 188 155 157 64 70 68 28 199 159 73 205 54 52 77 41 43 75 181 80 96
218:181
219:183 162 218 7
220:135 143 151 26 32 33 36 46 56 186 147 149 188 155 157 64 70 68 28 199 159 73 205 54 52 79 88 97 131 133 159 58 91 93 100 102 127 66 44 42 78 74 207 95 81 162
221:185
222:
223:135 143 151 26 32 33 36 46 56 186 147 149 188 155 157 64 70 68 28 66 44 42 54 52 199 159 73 79 78 74 162 207 81 88 97 131 133 159 58 91 93 95 100 102 127 48 85 104 108 110
224:
225:221 126 222 223 224
226:225
227:135 143 151 26 34 32 159 36 44 46 42 54 52 56 186 147 188 155 58 70 68 28 80 78 74 162 48 162 81 88 91 97 131 100 104 127 114 121 139
228:135 143 151 26 32 33 36 46 56 186 147 149 188 155 157 64 70 68 28 66 44 42 54 52 199 159 73 79 78 74 162 48 162 58 81 85 88 91 93 95 97 131 133 225 100 102 104 108 110 127 114 121 123 227
229:135 143 151 26 32 33 36 46 56 186 147 149 188 155 157 64 70 68 28 66 44 42 54 52 199 159 73 88 97 131 133 159 58 91 93 100 102 121 123 127 142 140 217 228
230:26 32 33 36 46 56 58 62
231:230 159 189 191 192
232:231
233:183 162 5 230
234:26 32 33 36 46 56 62 70 68 28 73 97 100 102 104 233
235:183 162 184 230
236:26 32 33 36 46 56 62 70 68 28 73 81 235
237:26 32 33 36 46 56 62 70 68 28 73 97 100 102 127 131 133 135 143 151 186 147 149 188 155 157 159 58 88 121 123 159 235 81 114 63 92 94 96 39 41 43 75 77 79 162 48 52 54 96 104 108 110 126
238:237
239:26 32 33 36 46 56 70 68 28 73 97 100 102 127 131 133 135 143 151 186 147 149 188 155 157 159 88 121 123 237 229
240:26 28 32
241:240 162 5 7
242:26 32 33 36 46 56 104 241
243:240 162 3 7
244:26 32 33 36 46 56 111 243
245:240 162 3 5
246:26 32 33 36 46 56 118 245
247:
248:26 32 33 36 46 56 127 135 143 151 71 67 72 141 139 242
249:26 32 33 36 46 56 71 67 72 127 135 143 149 147 244
250:26 32 33 36 46 56 71 67 72 127 135 143 151 157 155 246
251:247 159 248 249 250
252:26 32 33 36 46 56 71 67 72 88 251
253:103
254:
255:
256:
257:253 126 254 255 256
258:26 32 33 36 46 52 54 56 71 67 72 100 103 127 131 133 135 143 151 242 139 141 244 147 149 159 88 118 121 123 155 157 159 58 62 64 91 93 49 126
259:26 32 33 36 46 56 71 67 72 100 103 127 131 133
260:259 159 248 249 250
261:26 32 33 36 46 56 71 67 72 100 103 127 131 133 135 143 151 242 139 141 244 147 149 159 58 260
262:257
263:240 162 262 7
264:26 32 33 36 46 56 71 67 72 74 263
265:33
266:26 32 33 36 46 56 71 67 72 100 103 127 131 133 135 143 151 242 139 141 244 147 149 159 88 118 121 123 155 157 159 58 62 64 91 93 263 74 53 51 258
267:
268:240 65 265 266 267
269:268
270:26 32 33 36 42 43 268
271:241
272:
273:
274:
275:271 96 272 273 274
276:275
277:
278:271 96 272 277 274
279:278
280:26 29 33 36 46 56 68 72 100 98
281:245
282:280 161 271 281
283:26 32 33 36 46 56 71 67 72 100 98 103 114 127 131 133 135 143 151 242 139 141 244 147 149 159 88 118 121 123 155 157 159 58 62 64 91 93 258 51 53 85 263 74 268 43 41 39 77 79 96 87
284:257
285:
286:26 32 33 36 46 56 71 67 72 100 98 103 126 49 51 53 127 131 133 135 143 151 162 58 62 64 74 88 91 93 96 80 78 42 44 87 85 104 111 118 121 123 126 139 141 147 149 155 157 107 109
287:26 32 33 36 46 56 71 67 72 100 98 103 123 121 252
288:284 125 285 286 287
289:288
290:26 34 32 36 41 39 46 54 52 56 66 68 70 74 77 87 85 81 94 100 98 104 107 114 127 131 135 139 143 147 151 159 58 88 118 121 155 162
291:26 32 33 36 46 56 71 67 72 100 98 103 127 131 133 135 143 151 242 139 141 244 147 149 159 88 118 121 123 155 157 159 58 62 64 91 93 258 51 53 263 74 107 109 268 43 41 39 77 79 96 87 85 81 162 288 115 290
292:240
293:33
294:
295:
296:292 65 293 294 295
297:296
298:
299:292 65 293 298 295
300:299
301:292 65 293 298 294
302:301
303:292 162 5 7
304:26 32 33 36 46 56 71 67 72 74 303
305:292 162 3 7
306:26 32 33 36 46 56 71 67 72 81 305
307:26 32 33 36 42 43 296
308:26 32 33 36 46 52 53 299
309:26 32 33 36 46 56 62 63 301
310:241
311:
312:
313:
314:310 96 311 312 313
315:314
316:
317:310 96 311 316 313
318:317
319:310 96 311 316 312
320:319
321:243
322:245
323:310 161 321 322
324:323
325:323
326:26 32 33 36 46 56 71 67 72 127 135 143 151 242 139 141 244 147 149 246 155 157 159 88 121 123 323 291
327:26 32 33 36 46 56 127 135 143 151 239 326
328:26 36 46 56 127 135 143 151 176 327
329:328
